letting n_nurses=25
letting n_days=7
letting n_shift_types=4
letting max_covers=7
letting t_covers=61
letting covers=[4,0,6,0,2,6,1,0,2,1,6,0,0,7,5,0,4,0,6,0,1,1,0,0,0,4,5,0]
letting prefes=[4,2,4,4,4,1,4,4,1,1,1,1,1,1,1,1,1,1,1,1,1,1,2,1,4,1,4,4,4,1,4,4,1,1,1,1,1,1,1,1,4,1,1,1,1,1,1,1,4,1,2,1,1,1,1,1,1,1,1,1,4,1,4,4,1,1,1,2,1,1,1,2,1,1,1,2,1,1,1,2,4,1,4,4,4,2,4,4,4,1,4,4,1,1,4,1,4,1,1,1,1,1,4,1,4,1,1,1,4,1,4,4,4,1,4,4,4,1,4,4,1,1,1,2,1,3,1,2,1,1,1,2,1,1,2,2,4,1,4,4,4,1,4,4,4,1,4,4,1,1,1,1,1,1,1,1,1,1,1,1,1,2,1,1,4,1,4,4,4,1,4,4,1,1,1,1,1,1,1,1,1,1,1,1,1,1,1,1,1,1,1,1,1,1,1,1,1,1,1,1,4,1,4,4,1,1,1,1,1,3,1,1,1,1,1,1,1,1,1,1,4,1,4,4,4,1,4,4,4,3,4,4,1,2,1,1,4,1,1,1,1,2,1,1,4,1,1,1,4,3,4,4,4,1,4,4,4,1,4,4,1,1,4,1,1,1,4,1,1,1,4,1,1,1,1,1,4,1,4,4,4,2,4,4,4,3,4,4,3,2,4,1,4,1,4,1,3,2,4,1,4,1,1,1,4,3,4,4,4,1,4,4,4,1,4,4,1,1,4,1,4,3,1,1,1,1,4,1,4,1,1,1,4,1,4,4,4,1,4,4,4,1,4,4,1,1,1,1,1,1,1,1,1,1,1,1,1,1,1,1,4,1,4,4,4,1,4,4,4,1,4,4,1,1,1,2,1,1,1,2,1,1,1,2,1,1,1,2,4,1,4,4,4,1,4,4,4,3,4,4,3,1,1,1,1,1,1,1,3,1,1,1,1,1,4,1,4,3,4,4,4,1,4,4,4,1,4,4,3,2,1,2,1,3,4,2,3,2,1,2,1,1,1,2,4,1,4,4,4,2,4,4,4,1,4,4,1,1,1,1,1,1,1,1,1,1,1,1,1,2,1,1,4,1,4,4,1,1,1,1,4,3,4,4,1,1,1,1,1,1,1,1,1,1,1,1,1,2,1,1,4,3,4,4,4,1,4,4,4,3,4,4,3,1,4,1,1,1,1,1,3,1,4,1,1,1,1,1,4,3,4,4,4,1,4,4,4,1,4,4,1,1,1,1,1,1,4,1,1,1,1,1,1,2,1,1,4,1,4,4,1,1,1,1,1,1,1,1,1,1,1,1,1,3,1,1,1,1,1,1,1,1,1,1,1,1,1,1,1,1,1,1,1,1,1,1,1,2,1,1,1,1,1,1,1,2,1,1,1,1,2,1,1,1,1,1,4,1,4,4,4,1,4,4,3,1,1,2,1,1,4,2,3,1,1,2,1,1,1,2,4,1,4,4,4,2,4,4,1,1,1,1,1,2,1,1,1,1,1,1,1,2,1,1,1,2,1,1,1,1,1,1,4,1,4,4,4,1,4,4,1,1,1,1,1,1,1,1,1,1,1,1,1,1,1,1,4,1,4,4]
letting ub =  220
